scip/repair/build/enigma0.lp
\ SCIP STATISTICS
\   Problem name     : ENIGMA
\   Variables        : 100 (100 binary, 0 integer, 0 implicit integer, 0 continuous)
\   Constraints      : 21
\   Obj. scale       : 1
\   Obj. offset      : 0
Minimize
 Obj: +1 A1 +2 A2 +3 A3 +4 A4 +5 A5 +6 A6 +7 A7 +8 A8 +9 A9
Subject to
 SOS0: +1 A0 +1 B0 +1 C0 +1 D0 +1 E_0 +1 F0 +1 G0 +1 H0 +1 I0 +1 L0 = +1
 SOS2: +1 A2 +1 B2 +1 C2 +1 D2 +1 E_2 +1 F2 +1 G2 +1 H2 +1 I2 +1 L2 = +1
 SOS4: +1 A4 +1 B4 +1 C4 +1 D4 +1 E_4 +1 F4 +1 G4 +1 H4 +1 I4 +1 L4 = +1
 SOS9: +1 A9 +1 B9 +1 C9 +1 D9 +1 E_9 +1 F9 +1 G9 +1 H9 +1 I9 +1 L9 = +1
 BILANCIO: +202 A1 +404 A2 +606 A3 +808 A4 +1010 A5 +1212 A6 +1414 A7 +1616 A8 +1818 A9 -79 B1 -158 B2
  -237 B3 -316 B4 -395 B5 -474 B6 -553 B7 -632 B8 -711 B9 +100023 C1 +200046 C2 +300069 C3 +400092 C4
  +500115 C5 +600138 C6 +700161 C7 +800184 C8 +900207 C9 -89810 D1 -179620 D2 -269430 D3 -359240 D4 -449050 D5
  -538860 D6 -628670 D7 -718480 D8 -808290 D9 -9980 E_1 -19960 E_2 -29940 E_3 -39920 E_4 -49900 E_5 -59880 E_6
  -69860 E_7 -79840 E_8 -89820 E_9 +1000 F1 +2000 F2 +3000 F3 +4000 F4 +5000 F5 +6000 F6 +7000 F7 +8000 F8
  +9000 F9 +100 G1 +200 G2 +300 G3 +400 G4 +500 G5 +600 G6 +700 G7 +800 G8 +900 G9 +10000 H1 +20000 H2
  +30000 H3 +40000 H4 +50000 H5 +60000 H6 +70000 H7 +80000 H8 +90000 H9 +100 I1 +200 I2 +300 I3 +400 I4
  +500 I5 +600 I6 +700 I7 +800 I8 +900 I9 -1 L1 -2 L2 -3 L3 -4 L4 -5 L5 -6 L6 -7 L7 -8 L8 -9 L9 = +0
 SOSE: +1 E_0 +1 E_1 +1 E_2 +1 E_3 +1 E_4 +1 E_5 +1 E_6 +1 E_7 +1 E_8 +1 E_9 = +1
 SOSI: +1 I0 +1 I1 +1 I2 +1 I3 +1 I4 +1 I5 +1 I6 +1 I7 +1 I8 +1 I9 = +1
Bounds
 0 <= L8 <= 1
 0 <= A0 <= 1
 0 <= A1 <= 1
 0 <= A2 <= 1
 0 <= A3 <= 1
 0 <= A4 <= 1
 0 <= A5 <= 1
 0 <= A6 <= 1
 0 <= A7 <= 1
 0 <= A8 <= 1
 0 <= A9 <= 1
 0 <= B0 <= 1
 0 <= B1 <= 1
 0 <= B2 <= 1
 0 <= B3 <= 1
 0 <= B4 <= 1
 0 <= B5 <= 1
 0 <= B6 <= 1
 0 <= B7 <= 1
 0 <= B8 <= 1
 0 <= B9 <= 1
 0 <= C0 <= 1
 0 <= C1 <= 1
 0 <= C2 <= 1
 0 <= C3 <= 1
 0 <= C4 <= 1
 0 <= C5 <= 1
 0 <= C6 <= 1
 0 <= C7 <= 1
 0 <= C8 <= 1
 0 <= C9 <= 1
 0 <= D0 <= 1
 0 <= D1 <= 1
 0 <= D2 <= 1
 0 <= D3 <= 1
 0 <= D4 <= 1
 0 <= D5 <= 1
 0 <= D6 <= 1
 0 <= D7 <= 1
 0 <= D8 <= 1
 0 <= D9 <= 1
 0 <= E_0 <= 1
 0 <= E_1 <= 1
 0 <= E_2 <= 1
 0 <= E_3 <= 1
 0 <= E_4 <= 1
 0 <= E_5 <= 1
 0 <= E_6 <= 1
 0 <= E_7 <= 1
 0 <= E_8 <= 1
 0 <= E_9 <= 1
 0 <= F0 <= 1
 0 <= F1 <= 1
 0 <= F2 <= 1
 0 <= F3 <= 1
 0 <= F4 <= 1
 0 <= F5 <= 1
 0 <= F6 <= 1
 0 <= F7 <= 1
 0 <= F8 <= 1
 0 <= F9 <= 1
 0 <= G0 <= 1
 0 <= G1 <= 1
 0 <= G2 <= 1
 0 <= G3 <= 1
 0 <= G4 <= 1
 0 <= G5 <= 1
 0 <= G6 <= 1
 0 <= G7 <= 1
 0 <= G8 <= 1
 0 <= G9 <= 1
 0 <= H0 <= 1
 0 <= H1 <= 1
 0 <= H2 <= 1
 0 <= H3 <= 1
 0 <= H4 <= 1
 0 <= H5 <= 1
 0 <= H6 <= 1
 0 <= H7 <= 1
 0 <= H8 <= 1
 0 <= H9 <= 1
 0 <= I0 <= 1
 0 <= I1 <= 1
 0 <= I2 <= 1
 0 <= I3 <= 1
 0 <= I4 <= 1
 0 <= I5 <= 1
 0 <= I6 <= 1
 0 <= I7 <= 1
 0 <= I8 <= 1
 0 <= I9 <= 1
 0 <= L0 <= 1
 0 <= L1 <= 1
 0 <= L2 <= 1
 0 <= L3 <= 1
 0 <= L4 <= 1
 0 <= L5 <= 1
 0 <= L6 <= 1
 0 <= L7 <= 1
 0 <= L9 <= 1
Binaries
 L8 A0 A1 A2 A3 A4 A5 A6 A7 A8 A9 B0 B1 B2 B3 B4 B5 B6 B7 B8 B9 C0 C1 C2 C3 C4 C5 C6 C7 C8 C9 D0 D1 D2
 D3 D4 D5 D6 D7 D8 D9 E_0 E_1 E_2 E_3 E_4 E_5 E_6 E_7 E_8 E_9 F0 F1 F2 F3 F4 F5 F6 F7 F8 F9 G0 G1 G2 G3
 G4 G5 G6 G7 G8 G9 H0 H1 H2 H3 H4 H5 H6 H7 H8 H9 I0 I1 I2 I3 I4 I5 I6 I7 I8 I9 L0 L1 L2 L3 L4 L5 L6 L7
 L9
End
